655,419
625,51
765,490
874,672
801,406
536,301
822,212
814,338
782,719
829,383
482,342
540,600
801,406
1108,189
597,322
760,-97
709,583
1069,688
291,406
342,652
1006,457
769,392
947,599
515,919
512,575
624,424
368,507
245,89
755,634
